language ESSENCE' 1.0

letting n_classes be 23
letting n_options be 5
letting n_cars be 200
letting quantity_Function1D be [17, 2, 18, 8, 1, 5, 5, 3, 11, 4, 9, 4, 40, 1, 2, 6, 3, 29, 18, 1, 9, 2, 2; int(1..23)]
letting usage_RelationAsMatrix be
        [[false, false, false, false, true; int(1..5)], [false, true, true, false, true; int(1..5)],
         [false, true, false, true, false; int(1..5)], [true, false, true, false, false; int(1..5)],
         [false, false, false, true, true; int(1..5)], [false, true, true, false, false; int(1..5)],
         [false, false, true, false, true; int(1..5)], [true, true, true, false, false; int(1..5)],
         [true, true, false, false, false; int(1..5)], [false, true, true, true, false; int(1..5)],
         [false, false, true, true, false; int(1..5)], [true, true, false, false, true; int(1..5)],
         [false, true, false, false, false; int(1..5)], [true, false, false, true, true; int(1..5)],
         [true, false, false, false, true; int(1..5)], [true, false, false, true, false; int(1..5)],
         [false, true, false, false, true; int(1..5)], [true, false, false, false, false; int(1..5)],
         [false, false, false, true, false; int(1..5)], [true, false, true, true, false; int(1..5)],
         [false, false, true, false, false; int(1..5)], [true, true, true, false, true; int(1..5)],
         [true, true, false, true, false; int(1..5)];
             int(1..23)]
$ Visualisation for usage_RelationAsMatrix
$ _ _ _ _ T
$ _ T T _ T
$ _ T _ T _
$ T _ T _ _
$ _ _ _ T T
$ _ T T _ _
$ _ _ T _ T
$ T T T _ _
$ T T _ _ _
$ _ T T T _
$ _ _ T T _
$ T T _ _ T
$ _ T _ _ _
$ T _ _ T T
$ T _ _ _ T
$ T _ _ T _
$ _ T _ _ T
$ T _ _ _ _
$ _ _ _ T _
$ T _ T T _
$ _ _ T _ _
$ T T T _ T
$ T T _ T _

letting blksize_Function1D be [2, 3, 3, 5, 5; int(1..5)]
letting maxcars_Function1D be [1, 2, 1, 2, 1; int(1..5)]
letting fin1 be 23
letting fin2 be 40
letting fin3 be 5
letting fin4 be 2
letting fin5 be 5
letting fin6 be 5
letting fin7 be 50
